WARNING: for repeatability, setting FPU to use double precision
============================[ Problem Statistics ]=============================
|                                                                             |
|  Number of variables:        327522                                         |
|  Number of clauses:          789458                                         |
|  Parse time:                   0.24 s                                       |
|                                                                             |
============================[ Search Statistics ]==============================
| Conflicts |          ORIGINAL         |          LEARNT          | Progress |
|           |    Vars  Clauses Literals |    Limit  Clauses Lit/Cl |          |
===============================================================================
|       100 |  184946   762141  1710428 |   279451      100     20 | 43.532 % |
|       250 |  184946   762141  1710428 |   307396      250     38 | 43.532 % |
|       475 |  184946   762141  1710428 |   338136      475     48 | 43.532 % |
|       812 |  184946   762141  1710428 |   371950      812     53 | 43.532 % |
|      1318 |  184946   762141  1710428 |   409145     1318     53 | 43.532 % |
|      2077 |  184946   762141  1710428 |   450059     2077     52 | 43.532 % |
|      3216 |  184946   762141  1710428 |   495065     3216     56 | 43.532 % |
|      4924 |  184946   762141  1710428 |   544572     4924     55 | 43.532 % |
|      7486 |  184946   762141  1710428 |   599029     7486     57 | 43.532 % |
|     11330 |  184946   762141  1710428 |   658932    11330     55 | 43.532 % |
|     17096 |  184946   762141  1710428 |   724825    17096     48 | 43.532 % |
===============================================================================
restarts              : 63
conflicts             : 17911          (1789 /sec)
decisions             : 43118          (0.00 % random) (4306 /sec)
propagations          : 51578136       (5151310 /sec)
conflict literals     : 849707         (39.84 % deleted)
Memory used           : 88.00 MB
CPU time              : 10.0126 s

UNSATISFIABLE
